% File represents an instance of a Composite Structure problem to be solved by a CP framework
% Created on 2025-03-26 10:41:25.466
T = 58;
n = 16;
m = 24;
edges = [(2, 1),
(6, 5),
(10, 9),
(14, 13),
(2, 3),
(6, 7),
(11, 10),
(15, 14),
(3, 4),
(7, 8),
(11, 12),
(16, 15),
(1, 5),
(5, 9),
(9, 13),
(2, 6),
(6, 10),
(10, 14),
(3, 7),
(11, 7),
(11, 15),
(4, 8),
(12, 8),
(16, 12)];
counts = [|10, 10, 10, 24,
|12, 10, 12, 24,
|12, 6, 12, 22,
|12, 6, 12, 16,
|10, 8, 10, 22,
|12, 8, 12, 22,
|10, 6, 10, 22,
|10, 6, 10, 16,
|8, 8, 8, 20,
|10, 8, 10, 22,
|10, 8, 10, 24,
|10, 6, 10, 22,
|8, 8, 8, 16,
|10, 8, 10, 16,
|10, 8, 10, 22,
|10, 10, 10, 22|];
